%NProc=8
%mem=424000000
#B2PLYP=FULL/6-31+G** opt freq

1htz
1H-Tetrazole
casno=288948
state=1
config=1
method=59
basis=4

0 1
7 -0.7163950 -0.9006720 0.0000000
7 -1.0929320 0.2888150 0.0000000
7 0.0000000 1.0378520 0.0000000
1 -0.0609600 2.0279310 0.0000000
7 0.6214430 -0.9863510 0.0000000
6 1.0509190 0.2256260 0.0000000
1 2.0706340 0.5408070 0.0000000


