%mem=56000000
#PBEPBE/6-311+G(3df,2p) opt freq

1htz 1H-Tetrazole CH2N4
casno=288948
method=61
basis=10

0 1
N -0.7224410 -0.9235210 0.0000000
N -1.1170840 0.2985370 0.0000000
N 0.0000000 1.0523000 0.0000000
H -0.0611910 2.0574230 0.0000000
N 0.6372680 -1.0025860 0.0000000
C 1.0645660 0.2348430 0.0000000
H 2.0895930 0.5604090 0.0000000



