%mem=56000000
#CCSD(T)/6-311+G(3df,2p)

1hpyraz
casno=288131
method=32
basis=10

0 1
H 2.1092930 0.7343180 0.0000000
C 1.1160450 0.3075750 0.0000000
H 1.2646440 -1.8976070 0.0000000
C 0.6617160 -1.0009530 0.0000000
H -1.4789610 -1.6874200 0.0000000
C -0.7399070 -0.8972210 0.0000000
N -1.1529910 0.3861330 0.0000000
H -0.0511650 2.0957960 0.0000000
N 0.0000000 1.0850820 0.0000000


