%mem=24000000
#LSDA/cc-pVDZ opt freq

1hpyraz
1H-Pyrazole
casno=288131
method=51
basis=5
config=1

0 1
H 2.0804470 0.7224170 0.0000000
C 1.0963940 0.3024000 0.0000000
H 1.2555420 -1.8797840 0.0000000
C 0.6628120 -0.9897010 0.0000000
H -1.4748730 -1.6587680 0.0000000
C -0.7455440 -0.8744780 0.0000000
N -1.1278590 0.3705710 0.0000000
H -0.0480780 2.0666600 0.0000000
N 0.0000000 1.0751640 0.0000000


