%mem=56000000
#B1B95/6-31+G** opt freq

1hpyraz
1H-Pyrazole
casno=288131
method=55
basis=4

0 1
H 2.1064860 0.7323250 0.0000000
C 1.1129990 0.3071380 0.0000000
H 1.2667580 -1.8969080 0.0000000
C 0.6653210 -0.9996360 0.0000000
H -1.4794660 -1.6854320 0.0000000
C -0.7439360 -0.8915590 0.0000000
N -1.1499130 0.3783520 0.0000000
H -0.0506880 2.0948740 0.0000000
N 0.0000000 1.0872890 0.0000000


