%NProc=8
%mem=424000000
#B2PLYP=FULL/6-31+G** opt freq

1hpyraz
1H-Pyrazole
casno=288131
state=1
config=1
method=59
basis=4

0 1
1 2.0661650 0.6428150 0.0000000
6 1.0814880 0.2978070 0.0000000
1 1.2047450 -1.8516890 0.0000000
6 0.6322680 -0.9798720 0.0000000
1 -1.4339890 -1.6430750 0.0000000
6 -0.7393290 -0.8642520 0.0000000
7 -1.0977470 0.3879190 0.0000000
1 0.0007390 2.0309000 0.0000000
7 0.0000000 1.0547880 0.0000000


