%mem=56000000
#PBEPBE/3-21G opt freq

1hpyraz
casno=288131
method=61
basis=2

0 1
H 2.1177350 0.7261520 0.0000000
C 1.1210240 0.3195850 0.0000000
H 1.2867540 -1.8795820 0.0000000
C 0.6802550 -0.9916870 0.0000000
H -1.4439810 -1.7258380 0.0000000
C -0.7372060 -0.9134980 0.0000000
N -1.1829700 0.3583760 0.0000000
H -0.0641580 2.1172510 0.0000000
N 0.0000000 1.1095690 0.0000000


