%mem=24000000
#B3LYP/CEP-31G opt freq

1H pyrazole C3H4N2
casno=288131

0 1
H    -1.912500             -0.00                 -0.759375
C    -1.084375             -0.000000             -0.218750
H     0.434375              0.000000             -1.631250
C     0.150000              0.000000             -0.684375
H     1.912500              0.000000              0.371875
C     0.921875              0.000000              0.375000
N     0.181250              0.000000              1.418750
H    -1.740625              0.000000              1.631250
N    -1.003125              0.000000              1.053125

