%mem=56000000
#HF/aug-cc-pVTZ opt freq

1himidaz
1H-Imidazole
casno=288324
method=1
basis=18

0 1
N -0.7402660 -0.9623800 0.0000000
H -0.0133070 2.0816340 0.0000000
C 1.1073610 0.2867070 0.0000000
H 2.1004420 0.6753910 0.0000000
C 0.6296130 -0.9731030 0.0000000
H 1.1825260 -1.8866750 0.0000000
H -2.0738310 0.6562120 0.0000000
C -1.0726360 0.2799060 0.0000000
N 0.0000000 1.0927200 0.0000000


