%mem=56000000
#mPW1PW91/STO-3G opt freq

1himidaz
1H-Imidazole
casno=288324
method=25
basis=20

0 1
N -0.7462420 -0.9675440 0.0000000
H -0.0010240 2.0972780 0.0000000
C 1.1178150 0.2852440 0.0000000
H 2.1082130 0.6710720 0.0000000
C 0.6473990 -0.9827310 0.0000000
H 1.1939840 -1.8936920 0.0000000
H -2.0920280 0.6566120 0.0000000
C -1.0961220 0.2842330 0.0000000
N 0.0000000 1.1030090 0.0000000


