%mem=56000000
#CCSD(T)/6-311+G(3df,2p)

1himidaz
casno=288324
method=32
basis=10

0 1
N -0.7411900 -0.9942510 0.0000000
H -0.0100940 2.1168110 0.0000000
C 1.1196820 0.3059670 0.0000000
H 2.1191940 0.7146240 0.0000000
C 0.6357410 -0.9837930 0.0000000
H 1.2020810 -1.9051260 0.0000000
H -2.1044000 0.6643650 0.0000000
C -1.0918310 0.2838400 0.0000000
N 0.0000000 1.1047140 0.0000000


