%mem=24000000
#LSDA/3-21G opt freq

1himidaz
1H-Imidazole
casno=288324
method=51
basis=2
config=1

0 1
N -0.7410590 -0.9659590 0.0000000
H -0.0127340 2.0882470 0.0000000
C 1.1098620 0.2882720 0.0000000
H 2.1033390 0.6814360 0.0000000
C 0.6301820 -0.9739200 0.0000000
H 1.1822390 -1.8904440 0.0000000
H -2.0771620 0.6559690 0.0000000
C -1.0747560 0.2790960 0.0000000
N 0.0000000 1.0951170 0.0000000


