%NProc=8
%mem=424000000
#B2PLYP/cc-pVTZ opt freq

1himidaz
1H-Imidazole
casno=288324
state=1
config=1
method=56
basis=6

0 1
N -0.7430680 -0.9868820 0.0000000
H -0.0092620 2.1157520 0.0000000
C 1.1206150 0.2999140 0.0000000
H 2.1203370 0.7070580 0.0000000
C 0.6357560 -0.9834770 0.0000000
H 1.1980180 -1.9074130 0.0000000
H -2.1028970 0.6626130 0.0000000
C -1.0904910 0.2812880 0.0000000
N 0.0000000 1.1062590 0.0000000

